NAME          COPTPROB
OBJSENSE
  MIN
ROWS
 N  __OBJ___
 L  C0      
 L  C3      
 L  C4      
 L  C6      
 L  C8      
 L  C10     
 L  C11     
 L  C13     
 L  C15     
 L  C19     
 L  C21     
 L  C23     
 L  C24     
 L  C25     
 L  C26     
 L  C27     
 L  C28     
 L  C29     
 L  C31     
 L  C32     
 L  C34     
 L  C36     
 L  C38     
 L  C39     
 L  C40     
 L  C41     
 L  C42     
 L  C46     
 L  C47     
 L  C48     
 L  C49     
 L  C50     
 L  C51     
 L  C54     
 L  C55     
 L  C57     
 L  C58     
 L  C60     
 L  C61     
 L  C64     
 L  C65     
 L  C67     
 L  C69     
 L  C71     
 L  C74     
 L  C80     
 L  C81     
 L  C83     
 L  C85     
 L  C86     
 L  C92     
 L  C93     
 L  C94     
 L  C95     
 L  C97     
 L  C98     
 L  C100    
 L  C101    
 L  C102    
 L  C104    
 L  C106    
 L  C107    
 L  C109    
 L  C110    
 L  C111    
 L  C112    
 L  C118    
 L  C119    
 L  C120    
 L  C121    
 L  C122    
 L  C123    
 L  C126    
 L  C132    
 L  C133    
 L  C134    
 L  C137    
 L  C139    
 L  C140    
 L  C144    
 L  C145    
 L  C147    
 L  C149    
 L  C151    
 L  C152    
 L  C155    
 L  C157    
 L  C159    
 L  C162    
 L  C166    
 L  C168    
 L  C169    
 L  C172    
 L  C175    
 L  C176    
 L  C179    
 L  C180    
 L  C181    
 L  C184    
 L  C189    
 L  C190    
 L  C191    
 L  C192    
 L  C193    
 L  C194    
 L  C195    
 L  C198    
 L  C199    
 L  C203    
 L  C204    
 L  C205    
 L  C207    
 L  C208    
 L  C210    
 L  C211    
 L  C212    
 L  C215    
 L  C216    
 L  C218    
 L  C221    
 L  C225    
 L  C226    
 L  C227    
 L  C230    
 L  C231    
 L  C233    
 L  C236    
 L  C237    
 L  C240    
 L  C243    
 L  C244    
 L  C246    
 L  C248    
 L  C249    
 L  C251    
 L  C252    
 L  C254    
 L  C255    
 L  C256    
 L  C259    
 L  C260    
 L  C262    
 L  C268    
 L  C269    
 L  C270    
 L  C273    
 L  C274    
 L  C275    
 L  C277    
 L  C282    
 L  C283    
 L  C288    
 L  C289    
 L  C292    
 L  C293    
 L  C297    
 L  C298    
 L  C300    
 L  C301    
 L  C303    
 L  C306    
 L  C307    
 L  C308    
 L  C311    
 L  C313    
 L  C318    
 L  C319    
 L  C321    
 L  C322    
 L  C323    
 L  C324    
 L  C325    
 L  C329    
 L  C331    
 L  C332    
 L  C333    
 L  C336    
 L  C338    
 L  C340    
 L  C341    
 L  C345    
 L  C346    
 L  C347    
 L  C348    
 L  C350    
 L  C351    
 L  C353    
 L  C357    
 L  C358    
 L  C359    
 L  C360    
 L  C361    
 L  C362    
 L  C363    
 L  C364    
 L  C366    
 L  C367    
 L  C368    
 L  C372    
 L  C379    
 L  C380    
 L  C381    
 L  C383    
 L  C387    
 L  C390    
 L  C391    
 L  C394    
 L  C395    
 L  C396    
 L  C398    
 L  C399    
COLUMNS
    MARKER    'MARKER'                 'INTORG'
    x1        __OBJ___  513
    x1        C109      -1
    x1        C233      -1
    x2        __OBJ___  533
    x2        C121      -1
    x2        C181      -1
    x2        C289      -1
    x2        C313      -1
    x2        C341      -1
    x4        __OBJ___  683
    x4        C97       -1
    x4        C357      -1
    x4        C390      -1
    x9        __OBJ___  240
    x9        C155      -1
    x9        C180      -1
    x10       __OBJ___  670
    x10       C152      -1
    x10       C159      -1
    x10       C189      -1
    x10       C231      -1
    x10       C252      -1
    x11       __OBJ___  520
    x11       C48       -1
    x11       C61       -1
    x11       C199      -1
    x12       __OBJ___  826
    x12       C244      -1
    x12       C300      -1
    x12       C329      -1
    x12       C332      -1
    x12       C358      -1
    x14       __OBJ___  358
    x14       C221      -1
    x14       C306      -1
    x14       C333      -1
    x15       __OBJ___  443
    x15       C57       -1
    x15       C112      -1
    x15       C226      -1
    x15       C363      -1
    x17       __OBJ___  583
    x17       C172      -1
    x17       C331      -1
    x17       C359      -1
    x17       C368      -1
    x18       __OBJ___  649
    x18       C298      -1
    x18       C321      -1
    x18       C348      -1
    x18       C395      -1
    x25       __OBJ___  394
    x25       C31       -1
    x25       C39       -1
    x25       C350      -1
    x26       __OBJ___  980
    x26       C11       -1
    x26       C27       -1
    x26       C36       -1
    x26       C38       -1
    x26       C319      -1
    x27       __OBJ___  72
    x27       C81       -1
    x27       C86       -1
    x27       C106      -1
    x27       C379      -1
    x28       __OBJ___  756
    x28       C28       -1
    x28       C157      -1
    x28       C193      -1
    x28       C323      -1
    x36       __OBJ___  431
    x36       C64       -1
    x36       C192      -1
    x36       C259      -1
    x37       __OBJ___  825
    x37       C122      -1
    x37       C230      -1
    x37       C345      -1
    x38       __OBJ___  709
    x38       C80       -1
    x38       C110      -1
    x38       C118      -1
    x38       C120      -1
    x38       C140      -1
    x40       __OBJ___  161
    x40       C24       -1
    x40       C74       -1
    x40       C83       -1
    x43       __OBJ___  936
    x43       C145      -1
    x43       C207      -1
    x43       C255      -1
    x43       C399      -1
    x44       __OBJ___  349
    x44       C347      -1
    x46       __OBJ___  692
    x46       C67       -1
    x46       C132      -1
    x46       C215      -1
    x46       C346      -1
    x48       __OBJ___  648
    x48       C6        -1
    x48       C71       -1
    x48       C362      -1
    x50       __OBJ___  943
    x50       C19       -1
    x50       C65       -1
    x50       C104      -1
    x50       C179      -1
    x51       __OBJ___  582
    x51       C42       -1
    x51       C85       -1
    x51       C227      -1
    x51       C288      -1
    x52       __OBJ___  688
    x52       C151      -1
    x52       C391      -1
    x53       __OBJ___  422
    x53       C23       -1
    x53       C46       -1
    x53       C54       -1
    x53       C387      -1
    x54       __OBJ___  305
    x54       C107      -1
    x54       C149      -1
    x54       C248      -1
    x54       C394      -1
    x55       __OBJ___  502
    x55       C41       -1
    x55       C100      -1
    x55       C203      -1
    x55       C372      -1
    x60       __OBJ___  315
    x60       C0        -1
    x60       C98       -1
    x60       C211      -1
    x60       C297      -1
    x60       C318      -1
    x61       __OBJ___  928
    x61       C47       -1
    x61       C55       -1
    x61       C308      -1
    x64       __OBJ___  524
    x64       C273      -1
    x64       C322      -1
    x65       __OBJ___  957
    x65       C50       -1
    x65       C144      -1
    x65       C249      -1
    x65       C293      -1
    x65       C367      -1
    x66       __OBJ___  750
    x66       C133      -1
    x66       C139      -1
    x66       C147      -1
    x66       C353      -1
    x67       __OBJ___  23
    x67       C205      -1
    x67       C251      -1
    x67       C270      -1
    x67       C360      -1
    x68       __OBJ___  520
    x68       C93       -1
    x68       C380      -1
    x68       C381      -1
    x68       C383      -1
    x71       __OBJ___  608
    x71       C25       -1
    x71       C26       -1
    x71       C95       -1
    x71       C123      -1
    x71       C246      -1
    x71       C303      -1
    x72       __OBJ___  289
    x72       C60       -1
    x72       C102      -1
    x72       C126      -1
    x72       C366      -1
    x77       __OBJ___  467
    x77       C166      -1
    x77       C325      -1
    x78       __OBJ___  233
    x78       C92       -1
    x78       C111      -1
    x78       C236      -1
    x83       __OBJ___  988
    x83       C4        -1
    x83       C254      -1
    x83       C256      -1
    x83       C269      -1
    x84       __OBJ___  107
    x84       C3        -1
    x84       C225      -1
    x85       __OBJ___  267
    x85       C49       -1
    x85       C94       -1
    x85       C216      -1
    x85       C240      -1
    x87       __OBJ___  402
    x87       C13       -1
    x87       C29       -1
    x87       C134      -1
    x87       C176      -1
    x87       C194      -1
    x92       __OBJ___  321
    x92       C243      -1
    x92       C301      -1
    x92       C307      -1
    x93       __OBJ___  235
    x93       C162      -1
    x93       C184      -1
    x93       C191      -1
    x93       C210      -1
    x93       C361      -1
    x94       __OBJ___  12
    x94       C40       -1
    x94       C198      -1
    x94       C262      -1
    x94       C283      -1
    x95       __OBJ___  419
    x95       C32       -1
    x95       C58       -1
    x95       C336      -1
    x96       __OBJ___  143
    x96       C69       -1
    x96       C101      -1
    x96       C137      -1
    x96       C195      -1
    x97       __OBJ___  196
    x97       C351      -1
    x97       C396      -1
    x98       __OBJ___  796
    x98       C8        -1
    x98       C10       -1
    x98       C15       -1
    x98       C274      -1
    x98       C277      -1
    x103      __OBJ___  624
    x103      C133      -1
    x103      C204      -1
    x103      C353      -1
    x105      __OBJ___  197
    x105      C168      -1
    x105      C212      -1
    x109      __OBJ___  202
    x109      C175      -1
    x109      C189      -1
    x109      C332      -1
    x118      __OBJ___  649
    x118      C49       -1
    x118      C230      -1
    x118      C259      -1
    x118      C283      -1
    x122      __OBJ___  606
    x122      C301      -1
    x122      C321      -1
    x122      C364      -1
    x124      __OBJ___  500
    x124      C15       -1
    x125      __OBJ___  405
    x125      C195      -1
    x125      C251      -1
    x125      C345      -1
    x125      C368      -1
    x127      __OBJ___  40
    x127      C32       -1
    x127      C64       -1
    x127      C198      -1
    x127      C248      -1
    x127      C303      -1
    x129      __OBJ___  145
    x129      C243      -1
    x129      C363      -1
    x130      __OBJ___  3
    x130      C38       -1
    x130      C190      -1
    x130      C252      -1
    x130      C361      -1
    x134      __OBJ___  683
    x134      C21       -1
    x134      C207      -1
    x134      C292      -1
    x134      C341      -1
    x134      C363      -1
    x134      C381      -1
    x136      __OBJ___  408
    x136      C61       -1
    x136      C126      -1
    x136      C133      -1
    x136      C268      -1
    x137      __OBJ___  339
    x137      C109      -1
    x137      C190      -1
    x137      C297      -1
    x138      __OBJ___  302
    x138      C119      -1
    x138      C168      -1
    x138      C387      -1
    x139      __OBJ___  75
    x139      C4        -1
    x139      C121      -1
    x142      __OBJ___  198
    x142      C381      -1
    x143      __OBJ___  763
    x143      C46       -1
    x143      C195      -1
    x143      C387      -1
    x146      __OBJ___  971
    x146      C19       -1
    x146      C260      -1
    x146      C275      -1
    x146      C321      -1
    x146      C345      -1
    x149      __OBJ___  750
    x149      C193      -1
    x149      C195      -1
    x149      C226      -1
    x149      C249      -1
    x149      C293      -1
    x153      __OBJ___  309
    x153      C21       -1
    x153      C273      -1
    x157      __OBJ___  354
    x157      C24       -1
    x157      C139      -1
    x157      C145      -1
    x157      C240      -1
    x157      C333      -1
    x160      __OBJ___  310
    x160      C13       -1
    x160      C308      -1
    x160      C381      -1
    x161      __OBJ___  386
    x161      C169      -1
    x161      C237      -1
    x161      C358      -1
    x162      __OBJ___  774
    x162      C98       -1
    x162      C346      -1
    x163      __OBJ___  931
    x163      C204      -1
    x163      C329      -1
    x164      __OBJ___  832
    x164      C28       -1
    x164      C195      -1
    x164      C324      -1
    x165      __OBJ___  469
    x165      C324      -1
    x169      __OBJ___  714
    x169      C95       -1
    x169      C144      -1
    x169      C390      -1
    x170      __OBJ___  102
    x170      C4        -1
    x170      C221      -1
    x170      C331      -1
    x171      __OBJ___  505
    x171      C101      -1
    x171      C323      -1
    x171      C348      -1
    x173      __OBJ___  967
    x173      C67       -1
    x173      C347      -1
    x174      __OBJ___  703
    x174      C55       -1
    x174      C123      -1
    x174      C175      -1
    x184      __OBJ___  221
    x184      C27       -1
    x184      C199      -1
    x184      C391      -1
    x184      C396      -1
    x187      __OBJ___  248
    x187      C8        -1
    x187      C152      -1
    x187      C248      -1
    x189      __OBJ___  486
    x189      C40       -1
    x189      C92       -1
    x189      C152      -1
    x189      C282      -1
    x189      C345      -1
    x190      __OBJ___  23
    x190      C13       -1
    x190      C93       -1
    x190      C149      -1
    x190      C336      -1
    x191      __OBJ___  495
    x191      C192      -1
    x191      C311      -1
    x193      __OBJ___  497
    x193      C25       -1
    x193      C34       -1
    x193      C54       -1
    x193      C274      -1
    x194      __OBJ___  86
    x194      C313      -1
    x199      __OBJ___  335
    x199      C71       -1
    x199      C221      -1
    x199      C340      -1
    x199      C348      -1
    x200      __OBJ___  456
    x200      C34       -1
    x200      C132      -1
    x200      C341      -1
    x201      __OBJ___  341
    x201      C112      -1
    x201      C208      -1
    x201      C246      -1
    x203      __OBJ___  614
    x203      C353      -1
    x204      __OBJ___  91
    x204      C25       -1
    x205      __OBJ___  874
    x205      C36       -1
    x205      C55       -1
    x205      C298      -1
    x205      C346      -1
    x207      __OBJ___  871
    x207      C13       -1
    x207      C80       -1
    x207      C366      -1
    x208      __OBJ___  628
    x208      C15       -1
    x208      C231      -1
    x211      __OBJ___  939
    x211      C58       -1
    x211      C74       -1
    x211      C100      -1
    x214      __OBJ___  969
    x214      C54       -1
    x214      C300      -1
    x214      C359      -1
    x214      C379      -1
    x215      __OBJ___  131
    x215      C32       -1
    x215      C199      -1
    x215      C227      -1
    x215      C275      -1
    x215      C357      -1
    x217      __OBJ___  521
    x217      C51       -1
    x217      C134      -1
    x217      C363      -1
    x221      __OBJ___  908
    x221      C15       -1
    x221      C23       -1
    x221      C39       -1
    x221      C144      -1
    x221      C210      -1
    x222      __OBJ___  586
    x222      C95       -1
    x222      C180      -1
    x222      C193      -1
    x223      __OBJ___  124
    x223      C184      -1
    x223      C244      -1
    x223      C275      -1
    x225      __OBJ___  698
    x225      C133      -1
    x225      C230      -1
    x228      __OBJ___  341
    x228      C39       -1
    x228      C107      -1
    x228      C208      -1
    x229      __OBJ___  508
    x229      C0        -1
    x229      C191      -1
    x229      C348      -1
    x231      __OBJ___  165
    x231      C51       -1
    x231      C189      -1
    x231      C341      -1
    x231      C350      -1
    x231      C399      -1
    x232      __OBJ___  733
    x232      C4        -1
    x232      C81       -1
    x232      C307      -1
    x232      C308      -1
    x235      __OBJ___  624
    x235      C48       -1
    x235      C216      -1
    x235      C226      -1
    x235      C319      -1
    x237      __OBJ___  187
    x237      C208      -1
    x238      __OBJ___  762
    x238      C42       -1
    x238      C144      -1
    x238      C230      -1
    x239      __OBJ___  85
    x239      C248      -1
    x239      C289      -1
    x240      __OBJ___  340
    x240      C204      -1
    x240      C237      -1
    x240      C362      -1
    x240      C372      -1
    x242      __OBJ___  963
    x242      C274      -1
    x242      C395      -1
    x244      __OBJ___  517
    x244      C23       -1
    x244      C41       -1
    x244      C208      -1
    x244      C215      -1
    x244      C273      -1
    x246      __OBJ___  682
    x246      C189      -1
    x246      C293      -1
    x246      C359      -1
    x247      __OBJ___  44
    x247      C145      -1
    x247      C394      -1
    x247      C398      -1
    x250      __OBJ___  344
    x250      C275      -1
    x250      C306      -1
    x250      C332      -1
    x253      __OBJ___  18
    x253      C8        -1
    x253      C260      -1
    x253      C340      -1
    x254      __OBJ___  213
    x254      C211      -1
    x254      C323      -1
    x255      __OBJ___  184
    x255      C11       -1
    x255      C51       -1
    x256      __OBJ___  819
    x256      C21       -1
    x256      C31       -1
    x256      C92       -1
    x256      C395      -1
    x259      __OBJ___  664
    x259      C169      -1
    x259      C216      -1
    x259      C218      -1
    x259      C338      -1
    x263      __OBJ___  692
    x263      C15       -1
    x263      C322      -1
    x267      __OBJ___  34
    x267      C3        -1
    x267      C41       -1
    x267      C120      -1
    x267      C268      -1
    x269      __OBJ___  418
    x269      C123      -1
    x269      C275      -1
    x269      C367      -1
    x270      __OBJ___  252
    x270      C32       -1
    x270      C233      -1
    x270      C348      -1
    x270      C383      -1
    x271      __OBJ___  263
    x271      C71       -1
    x274      __OBJ___  152
    x274      C118      -1
    x274      C212      -1
    x275      __OBJ___  443
    x275      C249      -1
    x275      C298      -1
    x276      __OBJ___  144
    x276      C97       -1
    x276      C203      -1
    x277      __OBJ___  389
    x277      C122      -1
    x277      C282      -1
    x277      C398      -1
    x278      __OBJ___  319
    x278      C246      -1
    x279      __OBJ___  161
    x279      C55       -1
    x279      C318      -1
    x280      __OBJ___  667
    x280      C100      -1
    x280      C289      -1
    x280      C324      -1
    x280      C383      -1
    x281      __OBJ___  122
    x281      C211      -1
    x284      __OBJ___  275
    x284      C42       -1
    x284      C166      -1
    x284      C168      -1
    x284      C313      -1
    x286      __OBJ___  234
    x286      C111      -1
    x286      C237      -1
    x288      __OBJ___  388
    x288      C58       -1
    x288      C93       -1
    x288      C147      -1
    x289      __OBJ___  917
    x289      C126      -1
    x289      C140      -1
    x291      __OBJ___  729
    x291      C10       -1
    x291      C151      -1
    x291      C190      -1
    x291      C270      -1
    x294      __OBJ___  567
    x294      C85       -1
    x294      C104      -1
    x294      C118      -1
    x294      C325      -1
    x295      __OBJ___  19
    x295      C383      -1
    x296      __OBJ___  226
    x296      C198      -1
    x296      C259      -1
    x300      __OBJ___  236
    x300      C65       -1
    x300      C176      -1
    x300      C331      -1
    x300      C338      -1
    x300      C399      -1
    x303      __OBJ___  32
    x303      C27       -1
    x303      C157      -1
    x303      C215      -1
    x305      __OBJ___  728
    x305      C218      -1
    x305      C353      -1
    x305      C362      -1
    x309      __OBJ___  485
    x309      C195      -1
    x309      C218      -1
    x309      C289      -1
    x310      __OBJ___  126
    x310      C364      -1
    x312      __OBJ___  993
    x312      C11       -1
    x312      C98       -1
    x312      C332      -1
    x312      C362      -1
    x312      C395      -1
    x315      __OBJ___  119
    x315      C24       -1
    x315      C282      -1
    x316      __OBJ___  768
    x316      C54       -1
    x316      C199      -1
    x316      C246      -1
    x316      C324      -1
    x319      __OBJ___  468
    x319      C36       -1
    x319      C137      -1
    x319      C289      -1
    x319      C308      -1
    x322      __OBJ___  701
    x322      C179      -1
    x322      C211      -1
    x322      C380      -1
    x322      C391      -1
    x324      __OBJ___  583
    x324      C29       -1
    x324      C101      -1
    x324      C159      -1
    x324      C226      -1
    x324      C308      -1
    x325      __OBJ___  240
    x325      C106      -1
    x325      C176      -1
    x325      C179      -1
    x326      __OBJ___  874
    x326      C140      -1
    x326      C169      -1
    x326      C246      -1
    x326      C350      -1
    x328      __OBJ___  372
    x328      C69       -1
    x328      C162      -1
    x331      __OBJ___  619
    x331      C0        -1
    x331      C85       -1
    x331      C277      -1
    x331      C282      -1
    x331      C331      -1
    x333      __OBJ___  801
    x333      C193      -1
    x333      C199      -1
    x333      C351      -1
    x337      __OBJ___  429
    x337      C3        -1
    x337      C226      -1
    x337      C262      -1
    x337      C325      -1
    x337      C351      -1
    x337      C363      -1
    x338      __OBJ___  384
    x338      C69       -1
    x338      C109      -1
    x338      C162      -1
    x338      C180      -1
    x338      C391      -1
    x340      __OBJ___  753
    x340      C55       -1
    x340      C118      -1
    x340      C121      -1
    x340      C151      -1
    x341      __OBJ___  43
    x341      C60       -1
    x341      C139      -1
    x341      C184      -1
    x341      C298      -1
    x342      __OBJ___  607
    x342      C329      -1
    x344      __OBJ___  445
    x344      C152      -1
    x344      C255      -1
    x344      C350      -1
    x345      __OBJ___  174
    x345      C269      -1
    x345      C321      -1
    x345      C391      -1
    x347      __OBJ___  376
    x347      C50       -1
    x347      C94       -1
    x347      C191      -1
    x347      C293      -1
    x348      __OBJ___  620
    x348      C46       -1
    x348      C50       -1
    x348      C307      -1
    x351      __OBJ___  633
    x351      C195      -1
    x351      C231      -1
    x351      C288      -1
    x355      __OBJ___  964
    x355      C80       -1
    x355      C133      -1
    x355      C347      -1
    x357      __OBJ___  22
    x357      C194      -1
    x357      C251      -1
    x357      C399      -1
    x358      __OBJ___  272
    x358      C225      -1
    x358      C236      -1
    x358      C311      -1
    x359      __OBJ___  380
    x359      C31       -1
    x359      C364      -1
    x360      __OBJ___  570
    x360      C102      -1
    x360      C106      -1
    x360      C208      -1
    x360      C243      -1
    x361      __OBJ___  94
    x361      C189      -1
    x361      C318      -1
    x362      __OBJ___  684
    x362      C254      -1
    x362      C321      -1
    x362      C398      -1
    x363      __OBJ___  456
    x363      C8        -1
    x363      C64       -1
    x363      C205      -1
    x363      C255      -1
    x368      __OBJ___  685
    x368      C233      -1
    x368      C288      -1
    x368      C361      -1
    x370      __OBJ___  755
    x370      C256      -1
    x370      C259      -1
    x370      C273      -1
    x371      __OBJ___  37
    x371      C49       -1
    x371      C119      -1
    x371      C282      -1
    x371      C298      -1
    x372      __OBJ___  690
    x372      C80       -1
    x374      __OBJ___  75
    x374      C292      -1
    x374      C360      -1
    x377      __OBJ___  421
    x377      C39       -1
    x377      C86       -1
    x377      C97       -1
    x377      C175      -1
    x378      __OBJ___  256
    x378      C6        -1
    x378      C95       -1
    x378      C306      -1
    x378      C358      -1
    x383      __OBJ___  566
    x383      C51       -1
    x383      C254      -1
    x384      __OBJ___  183
    x384      C34       -1
    x384      C172      -1
    x384      C203      -1
    x385      __OBJ___  66
    x385      C0        -1
    x385      C345      -1
    x386      __OBJ___  894
    x386      C47       -1
    x386      C394      -1
    x387      __OBJ___  217
    x387      C231      -1
    x387      C340      -1
    x387      C394      -1
    x389      __OBJ___  843
    x389      C110      -1
    x389      C181      -1
    x389      C275      -1
    x389      C318      -1
    x389      C333      -1
    x390      __OBJ___  541
    x390      C97       -1
    x390      C311      -1
    x390      C346      -1
    x392      __OBJ___  638
    x392      C10       -1
    x392      C306      -1
    x392      C381      -1
    x393      __OBJ___  768
    x393      C28       -1
    x393      C41       -1
    x393      C155      -1
    x393      C391      -1
    x394      __OBJ___  470
    x394      C6        -1
    x394      C231      -1
    x394      C341      -1
    x396      __OBJ___  310
    x396      C29       -1
    x396      C57       -1
    x396      C380      -1
    x398      __OBJ___  315
    x398      C26       -1
    x398      C306      -1
    x398      C307      -1
    x398      C380      -1
    x399      __OBJ___  458
    x399      C27       -1
    x399      C83       -1
    x399      C181      -1
    x399      C248      -1
    MARKER    'MARKER'                 'INTEND'
RHS
    RHS       __OBJ___  -13837
    RHS       C0        -1
    RHS       C3        -1
    RHS       C4        -1
    RHS       C6        -1
    RHS       C8        -1
    RHS       C10       -1
    RHS       C11       -1
    RHS       C13       -1
    RHS       C15       -1
    RHS       C19       -1
    RHS       C21       -1
    RHS       C23       -1
    RHS       C24       -1
    RHS       C25       -1
    RHS       C26       -1
    RHS       C27       -1
    RHS       C28       -1
    RHS       C29       -1
    RHS       C31       -1
    RHS       C32       -1
    RHS       C34       -1
    RHS       C36       -1
    RHS       C38       -1
    RHS       C39       -1
    RHS       C40       -1
    RHS       C41       -1
    RHS       C42       -1
    RHS       C46       -1
    RHS       C47       -1
    RHS       C48       -1
    RHS       C49       -1
    RHS       C50       -1
    RHS       C51       -1
    RHS       C54       -1
    RHS       C55       -1
    RHS       C57       -1
    RHS       C58       -1
    RHS       C60       -1
    RHS       C61       -1
    RHS       C64       -1
    RHS       C65       -1
    RHS       C67       -1
    RHS       C69       -1
    RHS       C71       -1
    RHS       C74       -1
    RHS       C80       -1
    RHS       C81       -1
    RHS       C83       -1
    RHS       C85       -1
    RHS       C86       -1
    RHS       C92       -1
    RHS       C93       -1
    RHS       C94       -1
    RHS       C95       -1
    RHS       C97       -1
    RHS       C98       -1
    RHS       C100      -1
    RHS       C101      -1
    RHS       C102      -1
    RHS       C104      -1
    RHS       C106      -1
    RHS       C107      -1
    RHS       C109      -1
    RHS       C110      -1
    RHS       C111      -1
    RHS       C112      -1
    RHS       C118      -1
    RHS       C119      -1
    RHS       C120      -1
    RHS       C121      -1
    RHS       C122      -1
    RHS       C123      -1
    RHS       C126      -1
    RHS       C132      -1
    RHS       C133      -1
    RHS       C134      -1
    RHS       C137      -1
    RHS       C139      -1
    RHS       C140      -1
    RHS       C144      -1
    RHS       C145      -1
    RHS       C147      -1
    RHS       C149      -1
    RHS       C151      -1
    RHS       C152      -1
    RHS       C155      -1
    RHS       C157      -1
    RHS       C159      -1
    RHS       C162      -1
    RHS       C166      -1
    RHS       C168      -1
    RHS       C169      -1
    RHS       C172      -1
    RHS       C175      -1
    RHS       C176      -1
    RHS       C179      -1
    RHS       C180      -1
    RHS       C181      -1
    RHS       C184      -1
    RHS       C189      -1
    RHS       C190      -1
    RHS       C191      -1
    RHS       C192      -1
    RHS       C193      -1
    RHS       C194      -1
    RHS       C195      -1
    RHS       C198      -1
    RHS       C199      -1
    RHS       C203      -1
    RHS       C204      -1
    RHS       C205      -1
    RHS       C207      -1
    RHS       C208      -1
    RHS       C210      -1
    RHS       C211      -1
    RHS       C212      -1
    RHS       C215      -1
    RHS       C216      -1
    RHS       C218      -1
    RHS       C221      -1
    RHS       C225      -1
    RHS       C226      -1
    RHS       C227      -1
    RHS       C230      -1
    RHS       C231      -1
    RHS       C233      -1
    RHS       C236      -1
    RHS       C237      -1
    RHS       C240      -1
    RHS       C243      -1
    RHS       C244      -1
    RHS       C246      -1
    RHS       C248      -1
    RHS       C249      -1
    RHS       C251      -1
    RHS       C252      -1
    RHS       C254      -1
    RHS       C255      -1
    RHS       C256      -1
    RHS       C259      -1
    RHS       C260      -1
    RHS       C262      -1
    RHS       C268      -1
    RHS       C269      -1
    RHS       C270      -1
    RHS       C273      -1
    RHS       C274      -1
    RHS       C275      -1
    RHS       C277      -1
    RHS       C282      -1
    RHS       C283      -1
    RHS       C288      -1
    RHS       C289      -1
    RHS       C292      -1
    RHS       C293      -1
    RHS       C297      -1
    RHS       C298      -1
    RHS       C300      -1
    RHS       C301      -1
    RHS       C303      -1
    RHS       C306      -1
    RHS       C307      -1
    RHS       C308      -1
    RHS       C311      -1
    RHS       C313      -1
    RHS       C318      -1
    RHS       C319      -1
    RHS       C321      -1
    RHS       C322      -1
    RHS       C323      -1
    RHS       C324      -1
    RHS       C325      -1
    RHS       C329      -1
    RHS       C331      -1
    RHS       C332      -1
    RHS       C333      -1
    RHS       C336      -1
    RHS       C338      -1
    RHS       C340      -1
    RHS       C341      -1
    RHS       C345      -1
    RHS       C346      -1
    RHS       C347      -1
    RHS       C348      -1
    RHS       C350      -1
    RHS       C351      -1
    RHS       C353      -1
    RHS       C357      -1
    RHS       C358      -1
    RHS       C359      -1
    RHS       C360      -1
    RHS       C361      -1
    RHS       C362      -1
    RHS       C363      -1
    RHS       C364      -1
    RHS       C366      -1
    RHS       C367      -1
    RHS       C368      -1
    RHS       C372      -1
    RHS       C379      -1
    RHS       C380      -1
    RHS       C381      -1
    RHS       C383      -1
    RHS       C387      -1
    RHS       C390      -1
    RHS       C391      -1
    RHS       C394      -1
    RHS       C395      -1
    RHS       C396      -1
    RHS       C398      -1
    RHS       C399      -1
BOUNDS
 UP BOUND     x1        1
 UP BOUND     x2        1
 UP BOUND     x4        1
 UP BOUND     x9        1
 UP BOUND     x10       1
 UP BOUND     x11       1
 UP BOUND     x12       1
 UP BOUND     x14       1
 UP BOUND     x15       1
 UP BOUND     x17       1
 UP BOUND     x18       1
 UP BOUND     x25       1
 UP BOUND     x26       1
 UP BOUND     x27       1
 UP BOUND     x28       1
 UP BOUND     x36       1
 UP BOUND     x37       1
 UP BOUND     x38       1
 UP BOUND     x40       1
 UP BOUND     x43       1
 UP BOUND     x44       1
 UP BOUND     x46       1
 UP BOUND     x48       1
 UP BOUND     x50       1
 UP BOUND     x51       1
 UP BOUND     x52       1
 UP BOUND     x53       1
 UP BOUND     x54       1
 UP BOUND     x55       1
 UP BOUND     x60       1
 UP BOUND     x61       1
 UP BOUND     x64       1
 UP BOUND     x65       1
 UP BOUND     x66       1
 UP BOUND     x67       1
 UP BOUND     x68       1
 UP BOUND     x71       1
 UP BOUND     x72       1
 UP BOUND     x77       1
 UP BOUND     x78       1
 UP BOUND     x83       1
 UP BOUND     x84       1
 UP BOUND     x85       1
 UP BOUND     x87       1
 UP BOUND     x92       1
 UP BOUND     x93       1
 UP BOUND     x94       1
 UP BOUND     x95       1
 UP BOUND     x96       1
 UP BOUND     x97       1
 UP BOUND     x98       1
 UP BOUND     x103      1
 UP BOUND     x105      1
 UP BOUND     x109      1
 UP BOUND     x118      1
 UP BOUND     x122      1
 UP BOUND     x124      1
 UP BOUND     x125      1
 UP BOUND     x127      1
 UP BOUND     x129      1
 UP BOUND     x130      1
 UP BOUND     x134      1
 UP BOUND     x136      1
 UP BOUND     x137      1
 UP BOUND     x138      1
 UP BOUND     x139      1
 UP BOUND     x142      1
 UP BOUND     x143      1
 UP BOUND     x146      1
 UP BOUND     x149      1
 UP BOUND     x153      1
 UP BOUND     x157      1
 UP BOUND     x160      1
 UP BOUND     x161      1
 UP BOUND     x162      1
 UP BOUND     x163      1
 UP BOUND     x164      1
 UP BOUND     x165      1
 UP BOUND     x169      1
 UP BOUND     x170      1
 UP BOUND     x171      1
 UP BOUND     x173      1
 UP BOUND     x174      1
 UP BOUND     x184      1
 UP BOUND     x187      1
 UP BOUND     x189      1
 UP BOUND     x190      1
 UP BOUND     x191      1
 UP BOUND     x193      1
 UP BOUND     x194      1
 UP BOUND     x199      1
 UP BOUND     x200      1
 UP BOUND     x201      1
 UP BOUND     x203      1
 UP BOUND     x204      1
 UP BOUND     x205      1
 UP BOUND     x207      1
 UP BOUND     x208      1
 UP BOUND     x211      1
 UP BOUND     x214      1
 UP BOUND     x215      1
 UP BOUND     x217      1
 UP BOUND     x221      1
 UP BOUND     x222      1
 UP BOUND     x223      1
 UP BOUND     x225      1
 UP BOUND     x228      1
 UP BOUND     x229      1
 UP BOUND     x231      1
 UP BOUND     x232      1
 UP BOUND     x235      1
 UP BOUND     x237      1
 UP BOUND     x238      1
 UP BOUND     x239      1
 UP BOUND     x240      1
 UP BOUND     x242      1
 UP BOUND     x244      1
 UP BOUND     x246      1
 UP BOUND     x247      1
 UP BOUND     x250      1
 UP BOUND     x253      1
 UP BOUND     x254      1
 UP BOUND     x255      1
 UP BOUND     x256      1
 UP BOUND     x259      1
 UP BOUND     x263      1
 UP BOUND     x267      1
 UP BOUND     x269      1
 UP BOUND     x270      1
 UP BOUND     x271      1
 UP BOUND     x274      1
 UP BOUND     x275      1
 UP BOUND     x276      1
 UP BOUND     x277      1
 UP BOUND     x278      1
 UP BOUND     x279      1
 UP BOUND     x280      1
 UP BOUND     x281      1
 UP BOUND     x284      1
 UP BOUND     x286      1
 UP BOUND     x288      1
 UP BOUND     x289      1
 UP BOUND     x291      1
 UP BOUND     x294      1
 UP BOUND     x295      1
 UP BOUND     x296      1
 UP BOUND     x300      1
 UP BOUND     x303      1
 UP BOUND     x305      1
 UP BOUND     x309      1
 UP BOUND     x310      1
 UP BOUND     x312      1
 UP BOUND     x315      1
 UP BOUND     x316      1
 UP BOUND     x319      1
 UP BOUND     x322      1
 UP BOUND     x324      1
 UP BOUND     x325      1
 UP BOUND     x326      1
 UP BOUND     x328      1
 UP BOUND     x331      1
 UP BOUND     x333      1
 UP BOUND     x337      1
 UP BOUND     x338      1
 UP BOUND     x340      1
 UP BOUND     x341      1
 UP BOUND     x342      1
 UP BOUND     x344      1
 UP BOUND     x345      1
 UP BOUND     x347      1
 UP BOUND     x348      1
 UP BOUND     x351      1
 UP BOUND     x355      1
 UP BOUND     x357      1
 UP BOUND     x358      1
 UP BOUND     x359      1
 UP BOUND     x360      1
 UP BOUND     x361      1
 UP BOUND     x362      1
 UP BOUND     x363      1
 UP BOUND     x368      1
 UP BOUND     x370      1
 UP BOUND     x371      1
 UP BOUND     x372      1
 UP BOUND     x374      1
 UP BOUND     x377      1
 UP BOUND     x378      1
 UP BOUND     x383      1
 UP BOUND     x384      1
 UP BOUND     x385      1
 UP BOUND     x386      1
 UP BOUND     x387      1
 UP BOUND     x389      1
 UP BOUND     x390      1
 UP BOUND     x392      1
 UP BOUND     x393      1
 UP BOUND     x394      1
 UP BOUND     x396      1
 UP BOUND     x398      1
 UP BOUND     x399      1
ENDATA
